4 10 100 1 2
0 200
 1 40.00 50.00 0.00 0.00 0.00 0 0 0 1236
 2 45.00 68.00 90.00 10.00 20.00 1 1 1 890 989
 3 45.00 70.00 90.00 30.00 10.00 1 1 1 816 879
 4 42.00 66.00 90.00 10.00 10.00 1 1 1 55 156
 5 42.00 68.00 90.00 10.00 10.00 1 1 1 703 806
 6 42.00 65.00 90.00 10.00 20.00 1 1 1 15 60
 7 40.00 69.00 90.00 20.00 30.00 1 1 1 559 764
 8 40.00 66.00 90.00 20.00 20.00 1 1 1 172 223
 9 38.00 68.00 90.00 20.00 10.00 1 1 1 250 329
 10 38.00 70.00 90.00 10.00 30.00 1 1 1 489 650
 11 35.00 66.00 90.00 10.00 10.00 1 1 1 361 406
 12 35.00 69.00 90.00 10.00 20.00 1 1 1 450 503
 13 25.00 85.00 90.00 20.00 10.00 1 1 1 647 726
 14 22.00 75.00 90.00 30.00 20.00 1 1 1 30 95
 15 22.00 85.00 90.00 10.00 10.00 1 1 1 571 616
 16 20.00 80.00 90.00 40.00 10.00 1 1 1 392 421
 17 20.00 85.00 90.00 40.00 20.00 1 1 1 478 525
 18 18.00 75.00 90.00 20.00 20.00 1 1 1 105 142
 19 15.00 75.00 90.00 20.00 10.00 1 1 1 172 261
 20 15.00 80.00 90.00 10.00 10.00 1 1 1 274 349
 21 30.00 50.00 90.00 10.00 10.00 1 1 1 10 77
 22 30.00 52.00 90.00 20.00 20.00 1 1 1 918 961
 23 28.00 52.00 90.00 20.00 30.00 1 1 1 806 889
 24 28.00 55.00 90.00 10.00 10.00 1 1 1 739 770
 25 25.00 50.00 90.00 10.00 40.00 1 1 1 55 154
 26 25.00 52.00 90.00 40.00 10.00 1 1 1 172 221
 27 25.00 55.00 90.00 10.00 10.00 1 1 1 612 711
 28 23.00 52.00 90.00 10.00 10.00 1 1 1 264 313
 29 23.00 55.00 90.00 20.00 20.00 1 1 1 553 586
 30 20.00 50.00 90.00 10.00 10.00 1 1 1 365 398
 31 20.00 55.00 90.00 10.00 30.00 1 1 1 452 501
 32 10.00 35.00 90.00 20.00 10.00 1 1 1 204 233
 33 10.00 40.00 90.00 30.00 30.00 1 1 1 31 189
 34 8.00 40.00 90.00 40.00 10.00 1 1 1 42 203
 35 8.00 45.00 90.00 20.00 10.00 1 1 1 715 852
 36 5.00 35.00 90.00 10.00 10.00 1 1 1 251 376
 37 5.00 45.00 90.00 10.00 10.00 1 1 1 648 733
 38 2.00 40.00 90.00 20.00 10.00 1 1 1 365 452
 39 0.00 40.00 90.00 30.00 20.00 1 1 1 474 527
 40 0.00 45.00 90.00 20.00 10.00 1 1 1 541 650
 41 35.00 30.00 90.00 10.00 40.00 1 1 1 240 345
 42 35.00 32.00 90.00 10.00 10.00 1 1 1 123 278
 43 33.00 32.00 90.00 20.00 40.00 1 1 1 19 225
 44 33.00 35.00 90.00 10.00 10.00 1 1 1 16 153
 45 32.00 30.00 90.00 10.00 30.00 1 1 1 338 433
 46 30.00 30.00 90.00 10.00 30.00 1 1 1 513 628
 47 30.00 32.00 90.00 30.00 30.00 1 1 1 415 542
 48 30.00 35.00 90.00 10.00 10.00 1 1 1 872 1127
 49 28.00 30.00 90.00 10.00 20.00 1 1 1 599 726
 50 28.00 35.00 90.00 10.00 10.00 1 1 1 917 1126
 51 26.00 32.00 90.00 10.00 10.00 1 1 1 779 916
 52 25.00 30.00 90.00 10.00 10.00 1 1 1 695 816
 53 25.00 35.00 90.00 10.00 10.00 1 1 1 857 1024
 54 44.00 5.00 90.00 20.00 40.00 1 1 1 221 412
 55 42.00 10.00 90.00 40.00 10.00 1 1 1 96 347
 56 42.00 15.00 90.00 10.00 10.00 1 1 1 35 233
 57 40.00 5.00 90.00 30.00 10.00 1 1 1 347 474
 58 40.00 15.00 90.00 40.00 10.00 1 1 1 35 172
 59 38.00 5.00 90.00 30.00 30.00 1 1 1 403 602
 60 38.00 15.00 90.00 10.00 10.00 1 1 1 521 870
 61 35.00 5.00 90.00 20.00 40.00 1 1 1 487 704
 62 50.00 30.00 90.00 10.00 10.00 1 1 1 422 719
 63 50.00 35.00 90.00 20.00 30.00 1 1 1 217 362
 64 50.00 40.00 90.00 50.00 10.00 1 1 1 142 247
 65 48.00 30.00 90.00 10.00 10.00 1 1 1 567 758
 66 48.00 40.00 90.00 10.00 40.00 1 1 1 34 171
 67 47.00 35.00 90.00 10.00 20.00 1 1 1 794 907
 68 47.00 40.00 90.00 10.00 10.00 1 1 1 12 226
 69 45.00 30.00 90.00 10.00 10.00 1 1 1 716 795
 70 45.00 35.00 90.00 10.00 20.00 1 1 1 873 1012
 71 95.00 30.00 90.00 30.00 20.00 1 1 1 266 577
 72 95.00 35.00 90.00 20.00 10.00 1 1 1 181 472
 73 53.00 30.00 90.00 10.00 10.00 1 1 1 402 553
 74 92.00 30.00 90.00 10.00 20.00 1 1 1 345 684
 75 53.00 35.00 90.00 50.00 20.00 1 1 1 294 471
 76 45.00 65.00 90.00 20.00 10.00 1 1 1 951 1114
 77 90.00 35.00 90.00 10.00 10.00 1 1 1 153 310
 78 88.00 30.00 90.00 10.00 30.00 1 1 1 450 767
 79 88.00 35.00 90.00 20.00 20.00 1 1 1 50 237
 80 87.00 30.00 90.00 10.00 20.00 1 1 1 567 832
 81 85.00 25.00 90.00 10.00 40.00 1 1 1 713 876
 82 85.00 35.00 90.00 30.00 20.00 1 1 1 47 331
 83 75.00 55.00 90.00 20.00 10.00 1 1 1 311 478
 84 72.00 55.00 90.00 10.00 30.00 1 1 1 127 476
 85 70.00 58.00 90.00 20.00 10.00 1 1 1 349 632
 86 68.00 60.00 90.00 30.00 20.00 1 1 1 476 691
 87 66.00 55.00 90.00 10.00 20.00 1 1 1 67 344
 88 65.00 55.00 90.00 20.00 10.00 1 1 1 25 256
 89 65.00 60.00 90.00 30.00 10.00 1 1 1 546 807
 90 63.00 58.00 90.00 10.00 20.00 1 1 1 630 909
 91 60.00 55.00 90.00 10.00 20.00 1 1 1 20 293
 92 60.00 60.00 90.00 10.00 10.00 1 1 1 769 956
 93 67.00 85.00 90.00 20.00 50.00 1 1 1 229 580
 94 65.00 85.00 90.00 40.00 20.00 1 1 1 442 551
 95 65.00 82.00 90.00 10.00 10.00 1 1 1 227 394
 96 62.00 80.00 90.00 30.00 30.00 1 1 1 163 272
 97 60.00 80.00 90.00 10.00 20.00 1 1 1 36 291
 98 60.00 85.00 90.00 30.00 20.00 1 1 1 469 714
 99 58.00 75.00 90.00 20.00 10.00 1 1 1 30 227
 100 55.00 80.00 90.00 10.00 10.00 1 1 1 595 968
 101 55.00 85.00 90.00 20.00 50.00 1 1 1 493 880
